param n := 120;
param c := 450
param : V : p w :=
   0	  48	  38
   1	 110	 100
   2	  70	  60
   3	  52	  42
   4	  30	  20
   5	  79	  69
   6	  34	  24
   7	  33	  23
   8	 102	  92
   9	  42	  32
  10	  94	  84
  11	  46	  36
  12	  75	  65
  13	  94	  84
  14	  44	  34
  15	  78	  68
  16	  74	  64
  17	  43	  33
  18	  79	  69
  19	  37	  27
  20	  57	  47
  21	  31	  21
  22	  95	  85
  23	  98	  88
  24	  69	  59
  25	  71	  61
  26	  60	  50
  27	  63	  53
  28	  47	  37
  29	  85	  75
  30	  74	  64
  31	  94	  84
  32	  84	  74
  33	  67	  57
  34	  93	  83
  35	  38	  28
  36	  41	  31
  37	 107	  97
  38	  71	  61
  39	  46	  36
  40	  56	  46
  41	  47	  37
  42	 106	  96
  43	  90	  80
  44	  63	  53
  45	  61	  51
  46	  78	  68
  47	 100	  90
  48	  74	  64
  49	  91	  81
  50	  76	  66
  51	  77	  67
  52	  90	  80
  53	  47	  37
  54	 102	  92
  55	  77	  67
  56	  74	  64
  57	  41	  31
  58	 104	  94
  59	  55	  45
  60	  90	  80
  61	  38	  28
  62	  86	  76
  63	  39	  29
  64	  74	  64
  65	  48	  38
  66	  58	  48
  67	  50	  40
  68	  39	  29
  69	  54	  44
  70	  91	  81
  71	  45	  35
  72	  61	  51
  73	  58	  48
  74	  77	  67
  75	  34	  24
  76	  56	  46
  77	  48	  38
  78	  86	  76
  79	  32	  22
  80	  40	  30
  81	  77	  67
  82	  55	  45
  83	  51	  41
  84	  39	  29
  85	  51	  41
  86	  89	  79
  87	  31	  21
  88	  35	  25
  89	 100	  90
  90	  72	  62
  91	  44	  34
  92	  83	  73
  93	  60	  50
  94	  89	  79
  95	  76	  66
  96	  69	  59
  97	  52	  42
  98	 100	  90
  99	  89	  79
 100	  80	  70
 101	  76	  66
 102	  90	  80
 103	  45	  35
 104	  72	  62
 105	 108	  98
 106	 107	  97
 107	  47	  37
 108	  42	  32
 109	  85	  75
 110	 101	  91
 111	 101	  91
 112	  58	  48
 113	  36	  26
 114	  33	  23
 115	  42	  32
 116	 110	 100
 117	  56	  46
 118	  39	  29
 119	  36	  26
;

set E :=
   0	  10
   0	  14
   0	  19
   0	  36
   0	  62
   0	  70
   0	  86
   0	 112
   1	  26
   1	  27
   1	  32
   1	  33
   1	  65
   1	  71
   1	  73
   1	  74
   1	  93
   1	 102
   1	 113
   2	  24
   2	  27
   2	  34
   2	  41
   2	  43
   2	  55
   2	  59
   2	  60
   2	  68
   2	  76
   2	  92
   2	 101
   2	 108
   3	   8
   3	  10
   3	  16
   3	  22
   3	  48
   3	  77
   3	  84
   3	 101
   3	 105
   3	 113
   3	 117
   4	  36
   4	  52
   4	  76
   4	  81
   4	  90
   4	  93
   4	 109
   4	 115
   4	 118
   4	 119
   5	  10
   5	  13
   5	  20
   5	  30
   5	  33
   5	  52
   5	  53
   5	  54
   5	  57
   5	  60
   5	  64
   5	  65
   5	  70
   5	  81
   5	 105
   5	 107
   5	 117
   6	  11
   6	  14
   6	  15
   6	  27
   6	  60
   6	  63
   6	  64
   6	  72
   6	  75
   6	  92
   6	 117
   7	  12
   7	  21
   7	  27
   7	  48
   7	  63
   7	  65
   7	  92
   7	  97
   7	 102
   7	 105
   7	 109
   7	 112
   8	  49
   8	  59
   8	  72
   8	  81
   8	  85
   8	 100
   8	 104
   9	  20
   9	  23
   9	  26
   9	  41
   9	  45
   9	  46
   9	  47
   9	  54
   9	  81
   9	  83
   9	 116
   9	 117
  10	  25
  10	  38
  10	  39
  10	  64
  10	  74
  10	  83
  11	  17
  11	  29
  11	  42
  11	  54
  11	  61
  11	  63
  11	  67
  11	  78
  11	  80
  11	  92
  11	 102
  11	 104
  11	 108
  11	 110
  12	  57
  12	  74
  12	  78
  12	  79
  12	  83
  12	  96
  12	 101
  13	  43
  13	  49
  13	  50
  13	  59
  13	  71
  13	  74
  13	  76
  13	 118
  14	  24
  14	  30
  14	  32
  14	  46
  14	  55
  14	  78
  14	  84
  14	  99
  14	 108
  14	 111
  15	  21
  15	  25
  15	  38
  15	  51
  15	  52
  15	  70
  15	  75
  15	  92
  15	  97
  15	 105
  15	 113
  16	  17
  16	  20
  16	  25
  16	  26
  16	  38
  16	  39
  16	  40
  16	  59
  16	  78
  16	  94
  16	  97
  16	  99
  16	 107
  16	 110
  17	  29
  17	  37
  17	  38
  17	  39
  17	  43
  17	  53
  17	  69
  17	  71
  17	  81
  18	  25
  18	  39
  18	  45
  18	  63
  18	  91
  18	 103
  18	 104
  18	 113
  19	  31
  19	  36
  19	  55
  19	  57
  19	  75
  19	  77
  19	  78
  19	  86
  19	  87
  19	  88
  19	  95
  19	 101
  19	 105
  19	 108
  20	  29
  20	  33
  20	  35
  20	  46
  20	  66
  20	  67
  20	  71
  20	  97
  20	 117
  21	  35
  21	  56
  21	  67
  21	  71
  21	  72
  21	  82
  21	  98
  21	 100
  21	 113
  22	  27
  22	  31
  22	  50
  22	  55
  22	  61
  22	  65
  22	  80
  22	  87
  22	  96
  23	  32
  23	  62
  23	  65
  23	  69
  23	  71
  23	  75
  23	  85
  23	  87
  23	  88
  23	 109
  23	 110
  23	 112
  23	 119
  24	  31
  24	  34
  24	  43
  24	  61
  24	  67
  24	  71
  24	  79
  24	  98
  25	  47
  25	  92
  25	  94
  25	  95
  25	 115
  26	  37
  26	  38
  26	  40
  26	  58
  26	  87
  26	  91
  26	 114
  26	 117
  27	  33
  27	  39
  27	  40
  27	  43
  27	  50
  27	  53
  27	  67
  27	  68
  27	 103
  28	  51
  28	  71
  28	  73
  28	  74
  28	  80
  28	  94
  28	 109
  29	  38
  29	  44
  29	  49
  29	  53
  29	  65
  29	  88
  29	 104
  29	 106
  30	  38
  30	  52
  30	  53
  30	  62
  30	  68
  30	  70
  30	  87
  30	  92
  30	 110
  30	 112
  31	  34
  31	  60
  31	  69
  31	  78
  31	  84
  31	  95
  32	  45
  32	  52
  32	  55
  32	  61
  32	  95
  32	  96
  32	 104
  32	 110
  33	  39
  33	  41
  33	  59
  33	  63
  33	  64
  33	  65
  33	  70
  33	  96
  33	 117
  34	  36
  34	  45
  34	  61
  34	  67
  34	  74
  34	  91
  34	  99
  34	 109
  34	 111
  35	  39
  35	  44
  35	  45
  35	  46
  35	  49
  35	  53
  35	  82
  35	  95
  35	 107
  36	  39
  36	  49
  36	  53
  36	  71
  36	  92
  36	  93
  36	 107
  36	 117
  37	  43
  37	  47
  37	  60
  37	  83
  37	 101
  37	 112
  38	  46
  38	  56
  38	  62
  38	  63
  38	  86
  38	 109
  38	 111
  39	  43
  39	  48
  39	  56
  39	  60
  39	  85
  39	 102
  39	 105
  39	 110
  39	 112
  39	 117
  39	 118
  40	  41
  40	  43
  40	  46
  40	  47
  40	  48
  40	  53
  40	  63
  40	  67
  40	 113
  40	 114
  40	 117
  41	  50
  41	  54
  41	  58
  41	  65
  41	  71
  41	  73
  41	  82
  41	  87
  41	  95
  41	 100
  42	  50
  42	  62
  42	  79
  42	  80
  42	  81
  42	  87
  42	  93
  42	 101
  42	 110
  42	 114
  42	 118
  42	 119
  43	  46
  43	  48
  43	  51
  43	  55
  43	  58
  43	  85
  43	  94
  43	 116
  44	  56
  44	  81
  44	  89
  44	  91
  44	  96
  44	 108
  45	  46
  45	  49
  45	  52
  45	  64
  45	  69
  45	  71
  45	  78
  45	  79
  45	  82
  45	  83
  46	  50
  46	  61
  46	  62
  46	  77
  46	  79
  46	  80
  46	  88
  46	  96
  46	  99
  46	 108
  46	 109
  46	 111
  47	  52
  47	  70
  47	  96
  47	 108
  47	 118
  48	  60
  48	  64
  48	  68
  48	  75
  48	  89
  48	 108
  48	 113
  49	  58
  49	  66
  49	 112
  50	  56
  50	  59
  50	  62
  50	  79
  50	  86
  50	  88
  50	  90
  50	 102
  50	 112
  51	  58
  51	  70
  51	  79
  51	  83
  51	  84
  51	  87
  51	  95
  51	  96
  51	 103
  51	 106
  51	 107
  51	 110
  51	 111
  51	 114
  52	  56
  52	  60
  52	  65
  52	  83
  52	  89
  52	  94
  52	 102
  52	 107
  52	 108
  52	 112
  53	  62
  53	  93
  53	 101
  53	 104
  53	 113
  54	  67
  54	  91
  54	  92
  54	 103
  54	 105
  54	 107
  54	 112
  54	 117
  55	  70
  55	  80
  56	  60
  56	  66
  56	  75
  56	  90
  56	  95
  56	 103
  56	 113
  56	 118
  57	  82
  57	  87
  57	 105
  57	 107
  57	 111
  57	 118
  58	  94
  58	  97
  58	 116
  58	 119
  59	  99
  59	 102
  60	  77
  60	  93
  60	  98
  61	  76
  61	  90
  61	  95
  61	 106
  61	 110
  62	  75
  62	  84
  62	  96
  62	  98
  62	 101
  62	 104
  62	 110
  62	 115
  62	 118
  62	 119
  63	  66
  63	  74
  63	  86
  63	  93
  63	  98
  63	 103
  63	 108
  64	  74
  64	  75
  64	  81
  64	  94
  64	 107
  64	 114
  65	  66
  65	  69
  65	  85
  66	  84
  66	  93
  66	 109
  66	 111
  67	 100
  67	 111
  67	 113
  68	  82
  68	  87
  68	  96
  68	 104
  68	 107
  68	 112
  69	  71
  69	  77
  69	  78
  69	  86
  69	  92
  69	 103
  69	 107
  69	 111
  70	  83
  70	  88
  70	  96
  70	  98
  70	 100
  70	 113
  70	 118
  71	  74
  71	  96
  71	 105
  71	 107
  72	  79
  72	  89
  72	  93
  72	 103
  72	 105
  72	 108
  72	 109
  72	 113
  73	  85
  73	  86
  73	  98
  73	 103
  73	 107
  73	 109
  73	 112
  73	 117
  74	 103
  74	 110
  74	 117
  75	  77
  75	  88
  75	 100
  75	 109
  75	 114
  75	 118
  76	  79
  76	  85
  76	  88
  76	 102
  76	 106
  76	 115
  77	  78
  77	  85
  77	 101
  77	 102
  77	 103
  77	 112
  77	 114
  78	  88
  78	  92
  78	 111
  79	  84
  79	  85
  79	 119
  80	 108
  81	  83
  81	  89
  81	 115
  81	 117
  81	 118
  82	  86
  82	  90
  82	 103
  82	 105
  82	 107
  82	 109
  83	  86
  83	 107
  83	 108
  83	 111
  83	 119
  84	 101
  84	 102
  84	 108
  84	 118
  85	  86
  85	  90
  85	 100
  85	 101
  85	 107
  85	 111
  86	  94
  86	 105
  86	 114
  87	  95
  87	 102
  87	 104
  87	 109
  87	 110
  88	 104
  88	 105
  89	  90
  89	  92
  89	  97
  89	 113
  90	  96
  90	 108
  90	 109
  91	 106
  92	  98
  93	  95
  93	  98
  93	 103
  93	 107
  94	 105
  94	 106
  94	 115
  94	 118
  95	  98
  96	 111
  97	 108
  98	 101
  98	 102
  99	 118
 100	 101
 101	 115
 101	 118
 102	 113
 103	 105
 103	 109
 103	 113
 103	 115
 104	 110
 104	 118
 105	 112
 105	 119
 106	 118
 107	 115
 108	 117
 109	 118
 112	 116
;
